8392.0
1 1 1 1 1 1 0 1 0 0 0 1 1 1 1 1 1 1 0 1 
0 0 0 0 0 0 0 1 1 15 1 1 1 15 1 2 2 3 2 3 2 4 4 4 4 4 4 4 4 5 5 5 5 5 5 5 5 5 0 0 2 3 11 12 15 16 19 7 15 16 13 13 11 16 13 19 14 15 7 7 12 2 15 17 13 13 11 12 7 7 19 12 13 17 14 17 17 16 7 7 